InboundTrucks  = 8;
OutboundTrucks = 5;
InboundDoors   = 4;
OutboundDoors  = 4;
ReleaseTime    = [74,108,24,116,69,118,45,59];
UnloadTime     = [13,42,23,24,28,41,23,31];
LoadTime       = [19,7,13,11,10];
TransferTime   = [| 15,38,44,0,22 | 40,0,0,0,35 | 37,23,0,37,39 | 29,23,17,49,31 | 27,0,0,24,37 | 14,35,36,10,0 | 0,44,16,32,0 | 33,33,10,26,46 |];
